218383 
111172 76
60
59
61
62
58
55
56
57
63
64
73
72
71
65
66
51
52
49
50
67
70
68
69
47
48
44
45
46
24
23
1
0
75
2
22
21
25
26
27
53
54
42
43
28
33
32
29
30
31
19
20
5
4
3
7
8
6
9
10
35
34
40
41
39
38
36
37
18
17
11
12
16
15
13
14
74

107211 76
72
73
71
64
63
62
61
57
58
59
60
41
40
34
39
38
35
32
33
43
42
54
53
55
56
51
52
49
50
66
65
67
70
68
69
47
48
44
45
46
24
23
1
0
75
2
22
21
25
26
27
28
29
30
31
19
20
5
4
3
7
8
6
9
10
11
17
36
37
18
16
15
12
13
14
74

